NAME: CMT2_7
TYPE: CVRP
COMMENT: 835.26 - Cluster Nr.7
DIMENSION: 8
CAPACITY: 140
EDGE_WEIGHT_TYPE: EUC_2D
NODE_COORD_TYPE: TWOD_COORDS
NODE_COORD_SECTION: 
6 55 34
3 55 45
1 50 30
7 62 35
8 50 40
4 51 42
5 54 38
2 40 40
DEPOT_SECTION: 
2
-1
DEMAND_SECTION: 
2 0
7 12
5 19
3 16
4 27
1 21
6 17
8 19
EOF
